NAME: ACTUAL_TOURS/amz2995
TYPE: TOUR
COMMENT: RouteID_ea41250e-44fd-48b9-9ded-0ab2dad5a9a4
DIMENSION: 183
TOUR_SECTION
180
59
76
162
46
93
146
153
29
47
159
170
31
141
145
112
177
1
98
82
86
62
13
165
99
89
154
101
169
149
163
84
73
172
19
117
54
128
26
58
9
67
28
115
127
38
171
140
83
134
94
30
109
3
150
96
152
23
70
49
80
95
92
183
175
97
139
103
72
25
107
113
51
114
32
37
43
5
155
41
104
179
123
52
8
121
168
64
118
160
144
63
78
74
181
158
71
110
148
22
7
66
131
39
124
65
90
135
176
10
116
40
11
77
20
132
75
61
81
4
119
56
15
166
164
100
42
53
102
91
105
69
14
68
130
167
137
16
111
178
44
161
50
142
60
157
17
136
21
35
88
129
138
2
125
143
122
156
57
33
18
151
6
55
174
24
79
27
108
36
12
120
182
126
87
45
34
85
106
173
133
147
48
-1
EOF
